7
0	11125	23080	20948	50573	28433	34435
11414	0	19207	29255	56980	38751	30556
23448	19397	0	42082	55827	49744	39694
21557	29648	42346	0	69838	37471	42397
51516	57749	55390	70149	0	44747	83636
28474	38884	49650	37117	45153	0	62771
34488	30537	39521	41728	82769	62482	0
